% File represents an instance of a Composite Structure problem to be solved by a CP framework
% Created on 2025-03-26 10:41:15.748
T = 56;
n = 9;
m = 12;
edges = [(1, 2),
(4, 5),
(7, 8),
(2, 3),
(5, 6),
(9, 8),
(4, 1),
(4, 7),
(5, 2),
(5, 8),
(6, 3),
(9, 6)];
counts = [|20, 10, 20, 4,
|20, 6, 20, 2,
|18, 4, 18, 2,
|20, 12, 20, 4,
|20, 8, 20, 2,
|20, 4, 20, 2,
|18, 12, 18, 2,
|18, 6, 18, 2,
|20, 6, 20, 2|];
